c ---- [ banner ] ------------------------------------------------------------
c
c Kissat SAT Solver
c 
c Copyright (c) 2021-2024 Armin Biere University of Freiburg
c Copyright (c) 2019-2021 Armin Biere Johannes Kepler University Linz
c 
c Version 4.0.1 43f02cf3e992cb44653b35e5cb26f93281552ae0
c gcc (Ubuntu 13.2.0-23ubuntu4) 13.2.0 -W -Wall -O3 -DNDEBUG
c Thu Sep 12 12:27:46 CEST 2024 Linux abryzen9 6.8.0-41-generic x86_64
c
c ---- [ parsing ] -----------------------------------------------------------
c
c opened and reading DIMACS file:
c
c   /data/artifact/AMulet2.0_artifact/exp4/cnf_resyn3_64/64_64_U_SP_CWT_LF_GenMul_resyn3.cnf
c
c parsed 'p cnf 36662 145128' header
c closing input after reading 2832419 bytes (3 MB)
c finished parsing after 0.04 seconds
c
c ---- [ options ] -----------------------------------------------------------
c
c --stable=0                       (different from default '1')
c
c ---- [ solving ] -----------------------------------------------------------
c
c  seconds switched rate     size/glue tier1  binary           remaining
c         MB reductions conflicts size  tier2     irredundant
c          level restarts redundant glue  trail           variables
c
c *  0.04 11 0 0 0  0 0   0   0 0.0 0 0 0 0 0% 36392 108734 36659 100%
c (  0.07 13 0 0 0  0 0   0   0 0.0 0 0 0 0 0% 36392 108734 36659 100%
c .  0.08 13 0 0 0  0 0   0   0 0.0 0 0 0 0 0% 36388 108734 36659 100%
c c  0.19 21 0 0 0  0 0   0   0 0.0 0 0 0 0 0% 42678 98143 33543 91%
c d  0.21 21 0 0 0  0 0   0   0 0.0 0 0 0 0 0% 36446 98143 33543 91%
c =  0.28 21 0 0 0  0 0   0   0 0.0 0 0 0 0 0% 36348 98143 32968 90%
c d  0.29 21 0 0 0  0 0   0   0 0.0 0 0 0 0 0% 35198 98143 32968 90%
c f  0.42 20 0 0 0  0 0   0   0 0.0 0 0 0 0 0% 36204 94946 34514 94%
c e  0.62 27 0 0 0  0 0   0   0 0.0 0 0 0 0 0% 23906 102836 25168 69%
c )  0.62 27 0 0 0  0 0   0   0 0.0 0 0 0 0 0% 23906 102836 25168 69%
c {  0.65 27 0 0 0  0 0   0   0 0.0 0 0 2 6 0% 23906 102836 25168 69%
c -  0.90 27 120 0 1 302 34 1002 692 2.1 9 4 3 8 17% 24052 102831 25168 69%
c -  1.33 27 165 0 2 519 37 2002 1447 2.9 14 5 3 9 25% 24083 102831 25168 69%
c c  1.51 22 259 0 2 556 36 2505 1861 2.9 14 5 3 9 25% 24581 102452 24790 68%
c d  1.52 22 259 0 2 556 36 2505 1861 2.9 14 5 3 9 25% 23825 102452 24790 68%
c u  1.55 22 259 0 2 556 36 2505 1348 2.9 14 5 3 9 25% 22699 102452 24790 68%
c v  1.57 22 259 0 2 556 36 2505 1183 2.9 14 5 3 9 25% 22699 102452 24790 68%
c w  1.59 22 259 0 2 556 36 2505 1182 2.9 14 5 3 9 25% 22699 102452 24790 68%
c x  1.62 24 259 0 2 556 36 2505 1182 2.9 14 5 3 9 25% 22701 102279 24790 68%
c =  1.71 24 259 0 2 556 36 2505 1182 2.9 14 5 3 9 25% 23651 102279 24315 66%
c
c  seconds   switched   rate       size/glue tier1    binary           remaining
c         MB  reductions conflicts       size  tier2      irredundant
c           level restarts    redundant    glue   trail           variables
c
c d  1.72 24 259 0 2 556 36 2505 1176 2.9 14 5 3 9 25% 22697 102279 24315 66%
c t  1.73 24 259 0 2 556 36 2505 1176 2.9 14 5 3 9 25% 22652 102279 24315 66%
c f  1.77 24 259 0 2 556 36 2505 1176 2.9 14 5 3 9 25% 23284 100761 24876 68%
c u  1.88 24 259 0 2 556 36 2505 1103 2.9 14 5 3 9 25% 23288 100761 24876 68%
c v  1.91 24 259 0 2 556 36 2505 1072 2.9 14 5 3 9 25% 23288 100761 24876 68%
c w  1.94 24 259 0 2 556 36 2505 1072 2.9 14 5 3 9 25% 23288 100761 24876 68%
c x  1.97 24 259 0 2 556 36 2505 1072 2.9 14 5 3 9 25% 23290 100451 24876 68%
c =  2.08 24 259 0 2 556 36 2505 1072 2.9 14 5 3 9 25% 24480 100451 24281 66%
c d  2.09 24 259 0 2 556 36 2505 1062 2.9 14 5 3 9 25% 23253 100451 24281 66%
c t  2.10 24 259 0 2 556 36 2505 1062 2.9 14 5 3 9 25% 23210 100451 24281 66%
c f  2.14 24 259 0 2 556 36 2505 1062 2.9 14 5 3 9 25% 23595 99510 24720 67%
c -  2.65 24 251 0 3 792 41 3416 1627 3.4 18 5 3 9 27% 23617 99510 24720 67%
c -  3.18 24 260 0 4 979 37 5150 2785 3.2 19 6 3 9 28% 23692 99508 24720 67%
c -  3.73 24 257 0 5 1134 33 7151 4027 3.1 19 6 3 9 28% 23762 99507 24720 67%
c d  3.91 24 249 0 5 1171 32 7713 4528 3.1 18 6 3 9 28% 23769 99506 24714 67%
c u  3.99 24 249 0 5 1171 32 7713 3538 3.1 18 6 3 9 28% 23779 99506 24714 67%
c v  4.05 24 249 0 5 1171 32 7713 3175 3.1 18 6 3 9 28% 23781 99506 24714 67%
c w  4.09 24 249 0 5 1171 32 7713 3175 3.1 18 6 3 9 28% 23781 99506 24714 67%
c x  4.12 24 249 0 5 1171 32 7713 3175 3.1 18 6 3 9 28% 23786 98932 24714 67%
c =  4.31 24 249 0 5 1171 32 7713 3175 3.1 18 6 3 9 28% 24806 98930 24204 66%
c
c  seconds   switched    rate       size/glue tier1    binary          remaining
c         MB  reductions  conflicts       size  tier2      irredundant
c           level  restarts    redundant    glue   trail          variables
c
c d  4.32 24 249 0 5 1171 32 7713 3166 3.1 18 6 3 9 28% 23423 98930 24204 66%
c t  4.34 24 249 0 5 1171 32 7713 3166 3.1 18 6 3 9 28% 23394 98930 24204 66%
c f  4.40 24 249 0 5 1171 32 7713 3166 3.1 18 6 3 9 28% 23593 98412 24398 67%
c u  4.53 25 249 0 5 1171 32 7713 2963 3.1 18 6 3 9 28% 23595 98412 24398 67%
c v  4.57 25 249 0 5 1171 32 7713 2870 3.1 18 6 3 9 28% 23595 98412 24398 67%
c w  4.60 25 249 0 5 1171 32 7713 2868 3.1 18 6 3 9 28% 23595 98412 24398 67%
c x  4.64 25 249 0 5 1171 32 7713 2868 3.1 18 6 3 9 28% 23610 96042 24398 67%
c =  4.83 25 249 0 5 1171 32 7713 2868 3.1 18 6 3 9 28% 23938 96042 24234 66%
c d  4.84 25 249 0 5 1171 32 7713 2861 3.1 18 6 3 9 28% 23499 96042 24234 66%
c t  4.87 25 249 0 5 1171 32 7713 2861 3.1 18 6 3 9 28% 23498 96042 24234 66%
c f  4.96 25 249 0 5 1171 32 7713 2861 3.1 18 6 3 9 28% 23509 95977 24259 66%
c -  5.35 25 268 0 6 1255 31 9387 3777 3.1 18 6 3 9 28% 23610 95973 24259 66%
c o  5.42 25 283 0 6 1268 30 10002 4326 3.0 17 6 3 9 28% 23634 95973 24259 66%
c -  6.14 25 264 0 7 1417 29 11836 5273 3.1 18 6 3 8 29% 23687 95973 24259 66%
c s  6.33 25 269 0 7 1454 30 12523 5823 3.1 18 6 3 8 28% 23725 91999 24259 66%
c e  6.48 25 269 0 7 1454 30 12523 5823 3.1 18 6 3 8 28% 20454 94385 22224 61%
c 2  6.48 25 269 0 7 1454 30 12523 5823 3.1 18 6 3 8 28% 20451 94385 22224 61%
c s  6.51 25 269 0 7 1454 30 12523 5823 3.1 18 6 3 8 28% 20454 93579 22224 61%
c e  6.54 25 269 0 7 1454 30 12523 5823 3.1 18 6 3 8 28% 20280 93722 22142 60%
c ^  6.54 25 269 0 7 1454 30 12523 5823 3.1 18 6 3 8 28% 20280 93722 22142 60%
c
c  seconds   switched    rate        size/glue tier1    binary          remaining
c         MB  reductions   conflicts       size  tier2      irredundant
c           level  restarts     redundant    glue   trail          variables
c
c -  7.12 25 270 0 8 1642 31 14481 6166 3.2 19 6 3 8 28% 20337 93721 22142 60%
c d  7.33 25 272 0 8 1758 31 15797 7335 3.2 19 6 3 8 28% 20380 93719 22130 60%
c u  7.38 25 272 0 8 1758 31 15797 6061 3.2 19 6 3 8 28% 20397 93719 22130 60%
c v  7.41 25 272 0 8 1758 31 15797 5779 3.2 19 6 3 8 28% 20397 93719 22130 60%
c w  7.43 25 272 0 8 1758 31 15797 5777 3.2 19 6 3 8 28% 20397 93719 22130 60%
c x  7.46 25 272 0 8 1758 31 15797 5777 3.2 19 6 3 8 28% 20434 92541 22130 60%
c =  7.59 25 272 0 8 1758 31 15797 5777 3.2 19 6 3 8 28% 20806 92541 21944 60%
c d  7.60 25 272 0 8 1758 31 15797 5762 3.2 19 6 3 8 28% 20317 92541 21944 60%
c t  7.61 25 272 0 8 1758 31 15797 5762 3.2 19 6 3 8 28% 20267 92541 21944 60%
c f  7.66 25 272 0 8 1758 31 15797 5762 3.2 19 6 3 8 28% 20376 92206 22045 60%
c u  7.71 25 272 0 8 1758 31 15797 5229 3.2 19 6 3 8 28% 20382 92206 22045 60%
c v  7.73 25 272 0 8 1758 31 15797 4990 3.2 19 6 3 8 28% 20382 92206 22045 60%
c w  7.77 25 272 0 8 1758 31 15797 4990 3.2 19 6 3 8 28% 20382 92206 22045 60%
c x  7.79 25 272 0 8 1758 31 15797 4990 3.2 19 6 3 8 28% 20399 91501 22045 60%
c =  7.90 25 272 0 8 1758 31 15797 4990 3.2 19 6 3 8 28% 20751 91501 21869 60%
c d  7.91 25 272 0 8 1758 31 15797 4984 3.2 19 6 3 8 28% 20327 91501 21869 60%
c t  7.92 25 272 0 8 1758 31 15797 4984 3.2 19 6 3 8 28% 20295 91501 21869 60%
c f  7.94 25 272 0 8 1758 31 15797 4984 3.2 19 6 3 8 28% 20308 91446 21882 60%
c -  8.11 25 268 0 9 1862 30 17309 5325 3.1 19 6 2 8 28% 20369 91446 21882 60%
c o  8.49 25 257 0 9 2050 29 20011 7696 3.1 19 6 2 8 28% 20443 91446 21882 60%
c
c  seconds   switched     rate        size/glue tier1    binary          remaining
c         MB   reductions   conflicts       size  tier2      irredundant
c           level   restarts     redundant    glue   trail          variables
c
c -  8.54 25 255 0 10 2080 29 20309 6906 3.1 19 6 2 8 28% 20450 91446 21882 60%
c -  9.21 25 250 0 11 2404 30 23471 8394 3.3 21 6 2 7 28% 20560 91444 21882 60%
c s  9.48 25 258 0 11 2513 30 25030 9750 3.3 20 6 2 7 28% 20607 91012 21882 60%
c e  9.60 25 258 0 11 2513 30 25030 9750 3.3 20 6 2 7 28% 17080 95995 19939 54%
c 2  9.60 25 258 0 11 2513 30 25030 9750 3.3 20 6 2 7 28% 17079 95995 19939 54%
c s  9.62 25 258 0 11 2513 30 25030 9750 3.3 20 6 2 7 28% 17153 94992 19939 54%
c e  9.64 25 258 0 11 2513 30 25030 9750 3.3 20 6 2 7 28% 17061 95136 19881 54%
c ^  9.64 25 258 0 11 2513 30 25030 9750 3.3 20 6 2 7 28% 17061 95136 19881 54%
c -  9.93 25 256 0 12 2620 29 26789 8407 3.2 20 6 2 7 28% 17104 95136 19881 54%
c c 10.01 25 257 0 12 2625 29 26927 8516 3.3 20 6 2 7 28% 17124 95065 19868 54%
c d 10.01 25 257 0 12 2625 29 26927 8486 3.3 20 6 2 7 28% 17082 95065 19858 54%
c u 10.06 25 257 0 12 2625 29 26927 7245 3.3 20 6 2 7 28% 17111 95065 19858 54%
c v 10.11 25 257 0 12 2625 29 26927 6293 3.3 20 6 2 7 28% 17113 95065 19858 54%
c w 10.14 25 257 0 12 2625 29 26927 6291 3.3 20 6 2 7 28% 17113 95065 19858 54%
c x 10.18 25 257 0 12 2625 29 26927 6290 3.3 20 6 2 7 28% 17166 94213 19858 54%
c = 10.33 25 257 0 12 2625 29 26927 6290 3.3 20 6 2 7 28% 17560 94212 19661 54%
c d 10.34 25 257 0 12 2625 29 26927 6256 3.3 20 6 2 7 28% 17138 94212 19653 54%
c t 10.36 25 257 0 12 2625 29 26927 6256 3.3 20 6 2 7 28% 17074 94212 19653 54%
c f 10.44 25 257 0 12 2625 29 26927 6256 3.3 20 6 2 7 28% 17138 93819 19730 54%
c u 10.49 25 257 0 12 2625 29 26927 5947 3.3 20 6 2 7 28% 17142 93819 19730 54%
c
c  seconds   switched     rate        size/glue tier1    binary          remaining
c         MB   reductions   conflicts       size  tier2      irredundant
c           level   restarts     redundant    glue   trail          variables
c
c v 10.52 25 257 0 12 2625 29 26927 5773 3.3 20 6 2 7 28% 17142 93819 19730 54%
c w 10.54 25 257 0 12 2625 29 26927 5769 3.3 20 6 2 7 28% 17142 93819 19730 54%
c x 10.62 25 257 0 12 2625 29 26927 5767 3.3 20 6 2 7 28% 17165 92579 19730 54%
c = 10.80 25 257 0 12 2625 29 26927 5767 3.3 20 6 2 7 28% 19401 92579 18612 51%
c d 10.81 25 257 0 12 2625 29 26927 5602 3.3 20 6 2 7 28% 17122 92579 18612 51%
c t 10.83 25 257 0 12 2625 29 26927 5602 3.3 20 6 2 7 28% 16908 92579 18612 51%
c f 10.89 25 257 0 12 2625 29 26927 5602 3.3 20 6 2 7 28% 17023 91880 18733 51%
c - 11.40 25 252 0 13 2861 28 30253 7533 3.2 20 6 2 7 29% 17087 91877 18733 51%
c - 11.95 25 242 0 14 3098 27 33860 9482 3.2 20 6 2 7 28% 17160 91877 18733 51%
c - 12.33 25 244 0 15 3300 27 37603 11100 3.2 19 6 2 7 28% 17254 91877 18733 51%
c o 12.76 25 238 0 15 3474 26 40011 13258 3.2 20 6 2 7 28% 17302 91877 18733 51%
c d 13.03 25 236 0 15 3586 26 41256 14364 3.2 20 6 2 7 28% 17291 91877 18715 51%
c u 13.10 25 236 0 15 3586 26 41256 12403 3.2 20 6 2 7 28% 17311 91877 18715 51%
c v 13.16 25 236 0 15 3586 26 41256 11678 3.2 20 6 2 7 28% 17311 91877 18715 51%
c w 13.20 25 236 0 15 3586 26 41256 11678 3.2 20 6 2 7 28% 17311 91877 18715 51%
c x 13.26 27 236 0 15 3586 26 41256 11676 3.2 20 6 2 7 28% 17311 87100 18715 51%
c = 13.47 27 236 0 15 3586 26 41256 11676 3.2 20 6 2 7 28% 18587 87079 18077 49%
c d 13.48 27 236 0 15 3586 26 41256 11530 3.2 20 6 2 7 28% 17263 87079 18077 49%
c t 13.50 27 236 0 15 3586 26 41256 11530 3.2 20 6 2 7 28% 17122 87079 18077 49%
c f 13.53 27 236 0 15 3586 26 41256 11530 3.2 20 6 2 7 28% 17157 86673 18150 50%
c
c  seconds   switched     rate         size/glue tier1    binary          remaining
c         MB   reductions   conflicts        size  tier2      irredundant
c           level   restarts      redundant    glue   trail          variables
c
c u 13.59 27 236 0 15 3586 26 41256 11026 3.2 20 6 2 7 28% 17166 86673 18150 50%
c v 13.66 27 236 0 15 3586 26 41256 9998 3.2 20 6 2 7 28% 17167 86673 18150 50%
c w 13.70 27 236 0 15 3586 26 41256 9990 3.2 20 6 2 7 28% 17167 86673 18150 50%
c x 13.76 27 236 0 15 3586 26 41256 9989 3.2 20 6 2 7 28% 17167 83153 18150 50%
c = 13.92 27 236 0 15 3586 26 41256 9989 3.2 20 6 2 7 28% 17359 83153 18054 49%
c d 13.93 27 236 0 15 3586 26 41256 9965 3.2 20 6 2 7 28% 17166 83153 18054 49%
c t 13.95 27 236 0 15 3586 26 41256 9965 3.2 20 6 2 7 28% 17155 83153 18054 49%
c f 13.97 27 236 0 15 3586 26 41256 9965 3.2 20 6 2 7 28% 17178 83046 18072 49%
c - 14.03 27 236 0 16 3596 26 41475 8901 3.2 20 6 2 7 28% 17181 83046 18072 49%
c - 14.58 27 231 0 17 3876 25 45475 11059 3.1 20 6 2 7 28% 17232 83045 18072 49%
c - 15.21 27 224 0 18 4210 25 49598 13205 3.1 19 6 2 6 28% 17288 83045 18072 49%
c s 15.42 27 222 0 18 4316 24 52144 15401 3.0 19 6 2 6 27% 17338 80561 18072 49%
c e 15.52 27 222 0 18 4316 24 52144 15401 3.0 19 6 2 6 27% 15523 83763 16959 46%
c 2 15.52 27 222 0 18 4316 24 52144 15401 3.0 19 6 2 6 27% 15516 83763 16959 46%
c s 15.53 27 222 0 18 4316 24 52144 15401 3.0 19 6 2 6 27% 15610 82836 16959 46%
c e 15.55 27 222 0 18 4316 24 52144 15401 3.0 19 6 2 6 27% 15574 82881 16935 46%
c ^ 15.55 27 222 0 18 4316 24 52144 15401 3.0 19 6 2 6 27% 15574 82881 16935 46%
c - 15.70 27 221 0 19 4382 24 53841 13384 3.0 19 6 2 6 27% 15594 82880 16935 46%
c - 16.02 27 221 0 20 4539 23 58200 15021 2.9 18 6 2 6 27% 15699 82876 16935 46%
c c 16.09 27 220 0 20 4551 23 58882 15579 2.9 18 6 2 6 27% 15723 82788 16912 46%
c
c  seconds   switched     rate         size/glue tier1    binary          remaining
c         MB   reductions   conflicts        size  tier2      irredundant
c           level   restarts      redundant    glue   trail          variables
c
c d 16.10 27 220 0 20 4551 23 58882 15485 2.9 18 6 2 6 27% 15677 82788 16912 46%
c u 16.15 27 220 0 20 4551 23 58882 13166 2.9 18 6 2 6 27% 15715 82788 16912 46%
c v 16.19 27 220 0 20 4551 23 58882 12207 2.9 18 6 2 6 27% 15716 82788 16912 46%
c w 16.20 27 220 0 20 4551 23 58882 12189 2.9 18 6 2 6 27% 15716 82788 16912 46%
c x 16.25 27 220 0 20 4551 23 58882 12189 2.9 18 6 2 6 27% 15718 82573 16912 46%
c = 16.42 27 220 0 20 4551 23 58882 12189 2.9 18 6 2 6 27% 16006 82573 16768 46%
c d 16.43 27 220 0 20 4551 23 58882 12036 2.9 18 6 2 6 27% 15686 82573 16768 46%
c t 16.44 27 220 0 20 4551 23 58882 12036 2.9 18 6 2 6 27% 15611 82573 16768 46%
c f 16.49 27 220 0 20 4551 23 58882 12036 2.9 18 6 2 6 27% 15690 82237 16816 46%
c u 16.55 27 220 0 20 4551 23 58882 11262 2.9 18 6 2 6 27% 15698 82237 16816 46%
c v 16.60 27 220 0 20 4551 23 58882 10504 2.9 18 6 2 6 27% 15699 82237 16816 46%
c w 16.61 27 220 0 20 4551 23 58882 10487 2.9 18 6 2 6 27% 15699 82237 16816 46%
c x 16.66 27 220 0 20 4551 23 58882 10482 2.9 18 6 2 6 27% 15731 81367 16816 46%
c = 16.83 27 220 0 20 4551 23 58882 10482 2.9 18 6 2 6 27% 16301 81367 16531 45%
c d 16.84 27 220 0 20 4551 23 58882 10371 2.9 18 6 2 6 27% 15713 81367 16531 45%
c t 16.86 27 220 0 20 4551 23 58882 10371 2.9 18 6 2 6 27% 15656 81367 16531 45%
c f 16.87 27 220 0 20 4551 23 58882 10371 2.9 18 6 2 6 27% 15695 81163 16561 45%
c - 17.32 27 213 0 21 4809 22 62672 12273 2.9 17 6 2 6 27% 15752 81163 16561 45%
c - 17.94 27 209 0 22 5203 22 67254 14686 2.8 17 6 2 6 27% 15839 81162 16561 45%
c o 18.23 27 207 0 22 5393 22 70109 17081 2.8 17 6 2 6 27% 15892 81161 16561 45%
c
c  seconds   switched     rate         size/glue tier1    binary          remaining
c         MB   reductions   conflicts        size  tier2      irredundant
c           level   restarts      redundant    glue   trail          variables
c
c - 18.50 27 205 0 23 5564 22 71944 16633 2.8 17 6 2 6 27% 15911 81161 16561 45%
c - 19.02 27 201 0 24 5872 22 76740 18300 2.8 17 6 2 6 27% 15995 81160 16561 45%
c c 19.41 27 200 0 24 6089 21 79933 21081 2.8 17 6 2 6 27% 16087 80861 16492 45%
c d 19.41 27 200 0 24 6089 21 79933 20766 2.8 17 6 2 6 27% 15949 80861 16492 45%
c u 19.49 27 200 0 24 6089 21 79933 17749 2.8 17 6 2 6 27% 15976 80861 16492 45%
c v 19.55 27 200 0 24 6089 21 79933 16348 2.8 17 6 2 6 27% 15979 80861 16492 45%
c w 19.59 27 200 0 24 6089 21 79933 16324 2.8 17 6 2 6 27% 15979 80861 16492 45%
c x 19.65 27 200 0 24 6089 21 79933 16315 2.8 17 6 2 6 27% 16012 79113 16492 45%
c = 19.85 27 200 0 24 6089 21 79933 16315 2.8 17 6 2 6 27% 16838 79113 16079 44%
c d 19.86 27 200 0 24 6089 21 79933 15714 2.8 17 6 2 6 27% 15941 79113 16079 44%
c t 19.88 27 200 0 24 6089 21 79933 15714 2.8 17 6 2 6 27% 15808 79113 16079 44%
c f 19.90 27 200 0 24 6089 21 79933 15714 2.8 17 6 2 6 27% 15865 78832 16119 44%
c u 20.01 27 200 0 24 6089 21 79933 14495 2.8 17 6 2 6 27% 15881 78832 16119 44%
c v 20.06 27 200 0 24 6089 21 79933 13438 2.8 17 6 2 6 27% 15883 78832 16119 44%
c w 20.10 27 200 0 24 6089 21 79933 13412 2.8 17 6 2 6 27% 15883 78832 16119 44%
c x 20.17 27 200 0 24 6089 21 79933 13405 2.8 17 6 2 6 27% 15978 75823 16119 44%
c = 20.48 27 200 0 24 6089 21 79933 13405 2.8 17 6 2 6 27% 16578 75739 15812 43%
c d 20.48 27 200 0 24 6089 21 79933 13246 2.8 17 6 2 6 27% 15963 75739 15812 43%
c t 20.50 27 200 0 24 6089 21 79933 13246 2.8 17 6 2 6 27% 15873 75739 15812 43%
c f 20.52 27 200 0 24 6089 21 79933 13246 2.8 17 6 2 6 27% 15902 75573 15837 43%
c
c  seconds   switched     rate         size/glue tier1    binary          remaining
c         MB   reductions   conflicts        size  tier2      irredundant
c           level   restarts      redundant    glue   trail          variables
c
c - 20.72 27 199 0 25 6238 21 81638 13175 2.7 17 6 2 6 27% 15920 75573 15837 43%
c - 21.33 27 193 0 26 6722 21 86638 15835 2.7 17 6 2 6 27% 15987 75572 15837 43%
c - 21.96 27 188 0 27 7182 21 91739 18310 2.7 16 6 2 6 27% 16054 75572 15837 43%
c s 22.57 27 185 0 27 7643 21 95794 22036 2.7 17 6 2 6 27% 16104 73526 15837 43%
c e 22.68 27 185 0 27 7643 21 95794 22036 2.7 17 6 2 6 27% 12265 84238 13559 37%
c 2 22.68 27 185 0 27 7643 21 95794 22036 2.7 17 6 2 6 27% 12254 84238 13559 37%
c s 22.71 27 185 0 27 7643 21 95794 22036 2.7 17 6 2 6 27% 12332 82908 13559 37%
c e 22.73 27 185 0 27 7643 21 95794 22036 2.7 17 6 2 6 27% 12228 83123 13514 37%
c ^ 22.73 27 185 0 27 7643 21 95794 22036 2.7 17 6 2 6 27% 12228 83123 13514 37%
c - 22.98 27 185 0 28 7824 21 96937 14816 2.7 17 6 2 6 27% 12230 83122 13514 37%
c - 23.62 27 181 0 29 8263 21 102229 17424 2.6 16 6 2 6 28% 12278 83122 13514 37%
c d 23.94 27 179 0 29 8546 21 104540 19410 2.6 16 6 2 6 28% 12273 83121 13500 37%
c u 24.01 27 179 0 29 8546 21 104540 16490 2.6 16 6 2 6 28% 12291 83121 13500 37%
c v 24.09 27 179 0 29 8546 21 104540 14369 2.6 16 6 2 6 28% 12291 83121 13500 37%
c w 24.15 27 179 0 29 8546 21 104540 14350 2.6 16 6 2 6 28% 12291 83121 13500 37%
c x 24.23 27 179 0 29 8546 21 104540 14347 2.6 16 6 2 6 28% 12339 82638 13500 37%
c = 24.62 27 179 0 29 8546 21 104540 14347 2.6 16 6 2 6 28% 12887 82630 13226 36%
c d 24.63 27 179 0 29 8546 21 104540 14096 2.6 16 6 2 6 28% 12308 82630 13226 36%
c t 24.64 27 179 0 29 8546 21 104540 14096 2.6 16 6 2 6 28% 12183 82630 13226 36%
c f 24.75 27 179 0 29 8546 21 104540 14096 2.6 16 6 2 6 28% 12230 82362 13248 36%
c
c  seconds   switched     rate          size/glue tier1    binary          remaining
c         MB   reductions   conflicts         size  tier2      irredundant
c           level   restarts       redundant    glue   trail          variables
c
c u 24.84 27 179 0 29 8546 21 104540 13327 2.6 16 6 2 6 28% 12249 82362 13248 36%
c v 24.89 27 179 0 29 8546 21 104540 12889 2.6 16 6 2 6 28% 12250 82362 13248 36%
c w 24.97 27 179 0 29 8546 21 104540 12802 2.6 16 6 2 6 28% 12250 82362 13248 36%
c x 25.05 27 179 0 29 8546 21 104540 12779 2.6 16 6 2 6 28% 12273 79857 13248 36%
c = 25.44 27 179 0 29 8546 21 104540 12779 2.6 16 6 2 6 28% 12487 79771 13133 36%
c d 25.45 27 179 0 29 8546 21 104540 12747 2.6 16 6 2 6 28% 12278 79771 13133 36%
c t 25.46 27 179 0 29 8546 21 104540 12747 2.6 16 6 2 6 28% 12193 79771 13133 36%
c f 25.48 27 179 0 29 8546 21 104540 12747 2.6 16 6 2 6 28% 12192 79761 13134 36%
c - 25.94 27 177 0 30 8859 21 107614 13889 2.6 16 6 2 6 28% 12211 79760 13134 36%
c i 26.21 27 175 0 30 9013 21 109374 15423 2.6 16 6 2 6 28% 12239 79757 13133 36%
c o 26.30 27 175 0 30 9068 21 110112 16090 2.6 16 6 2 6 28% 12243 79757 13133 36%
c i 26.35 27 175 0 30 9101 21 110316 16271 2.6 16 6 2 6 28% 12252 79756 13132 36%
c - 26.64 27 172 0 31 9273 21 113093 16725 2.5 16 6 2 6 28% 12267 79756 13132 36%
c i 26.66 27 172 0 31 9290 21 113268 16868 2.5 16 6 2 6 28% 12272 79756 13131 36%
c i 27.10 27 171 0 31 9585 21 116042 19442 2.5 16 6 2 6 28% 12293 79755 13130 36%
c i 27.16 27 171 0 31 9631 21 116575 19877 2.5 16 6 2 6 28% 12299 79755 13129 36%
c i 27.43 27 170 0 31 9823 21 118520 21627 2.5 16 6 2 6 28% 12320 79754 13128 36%
c - 27.45 27 170 0 32 9840 21 118660 18897 2.5 16 6 2 6 28% 12304 79754 13128 36%
c i 27.56 27 169 0 32 9904 21 119527 19661 2.5 16 6 2 6 28% 12314 79754 13127 36%
c i 27.94 27 169 0 32 10158 21 121168 21208 2.5 16 6 2 6 28% 12326 79753 13126 36%
c
c  seconds   switched      rate          size/glue tier1    binary          remaining
c         MB   reductions    conflicts         size  tier2      irredundant
c           level   restarts        redundant    glue   trail          variables
c
c i 27.97 27 168 0 32 10177 21 121468 21480 2.5 16 6 2 6 28% 12331 79753 13125 36%
c i 28.37 27 167 0 32 10424 21 123937 23788 2.5 16 6 2 6 29% 12344 79752 13123 36%
c i 28.37 27 167 0 32 10425 21 124192 23940 2.5 16 6 2 6 29% 12358 79752 13121 36%
c - 28.40 27 167 0 33 10437 21 124316 20781 2.5 16 6 2 6 29% 12333 79752 13121 36%
c i 28.47 27 166 0 33 10482 21 125143 21526 2.5 16 6 2 6 29% 12344 79752 13119 36%
c i 28.77 27 165 0 33 10689 21 127302 23503 2.5 16 6 2 6 29% 12356 79752 13118 36%
c i 28.92 27 164 0 33 10799 21 128222 24350 2.5 16 6 2 6 29% 12363 79752 13117 36%
c i 29.15 27 163 0 33 10982 21 130025 25998 2.5 16 6 2 6 29% 12381 79752 13116 36%
c - 29.16 27 163 0 34 10990 21 130061 22590 2.5 16 6 2 6 29% 12369 79752 13116 36%
c i 29.19 27 163 0 34 11014 21 130213 22718 2.5 16 6 2 6 29% 12373 79752 13115 36%
c i 29.25 27 163 0 34 11061 21 130723 23183 2.5 16 6 2 6 29% 12375 79752 13114 36%
c i 29.34 27 162 0 34 11116 21 131352 23754 2.5 16 6 2 6 29% 12383 79752 13113 36%
c i 29.41 27 162 0 34 11172 21 131800 24157 2.5 16 7 2 6 29% 12387 79752 13112 36%
c i 29.49 27 161 0 34 11259 21 132471 24758 2.5 16 7 2 6 29% 12392 79752 13111 36%
c d 29.51 27 161 0 34 11267 21 132773 24882 2.5 16 7 2 6 29% 12428 79555 13101 36%
c d 29.52 27 161 0 34 11267 21 132773 24849 2.5 16 7 2 6 29% 12378 79553 13076 36%
c u 29.63 27 161 0 34 11267 21 132773 21372 2.5 16 7 2 6 29% 12404 79553 13076 36%
c v 29.72 27 161 0 34 11267 21 132773 19973 2.5 16 7 2 6 29% 12406 79553 13076 36%
c w 29.77 27 161 0 34 11267 21 132773 19965 2.5 16 7 2 6 29% 12406 79553 13076 36%
c x 29.89 27 161 0 34 11267 21 132773 19959 2.5 16 7 2 6 29% 12475 77098 13076 36%
c
c  seconds   switched      rate          size/glue tier1    binary          remaining
c         MB   reductions    conflicts         size  tier2      irredundant
c           level   restarts        redundant    glue   trail          variables
c
c = 30.33 27 161 0 34 11267 21 132773 19959 2.5 16 7 2 6 29% 12521 77086 13052 36%
c d 30.34 27 161 0 34 11267 21 132773 19905 2.5 16 7 2 6 29% 12462 77086 13052 36%
c t 30.36 27 161 0 34 11267 21 132773 19905 2.5 16 7 2 6 29% 12372 77086 13052 36%
c f 30.37 27 161 0 34 11267 21 132773 19905 2.5 16 7 2 6 29% 12375 77074 13053 36%
c u 30.47 27 161 0 34 11267 21 132773 18927 2.5 16 7 2 6 29% 12379 77074 13053 36%
c v 30.56 27 161 0 34 11267 21 132773 17368 2.5 16 7 2 6 29% 12380 77074 13053 36%
c w 30.63 27 161 0 34 11267 21 132773 17251 2.5 16 7 2 6 29% 12380 77074 13053 36%
c x 30.72 27 161 0 34 11267 21 132773 17250 2.5 16 7 2 6 29% 12415 76372 13053 36%
c = 31.15 27 161 0 34 11267 21 132773 17250 2.5 16 7 2 6 29% 12613 76256 12942 35%
c d 31.16 27 161 0 34 11267 21 132773 17158 2.5 16 7 2 6 29% 12407 76256 12942 35%
c t 31.17 27 161 0 34 11267 21 132773 17158 2.5 16 7 2 6 29% 12355 76256 12942 35%
c f 31.18 27 161 0 34 11267 21 132773 17158 2.5 16 7 2 6 29% 12358 76242 12943 35%
c i 31.19 27 161 0 34 11270 21 132897 17243 2.5 16 7 2 6 29% 12361 76237 12942 35%
c i 31.19 27 161 0 34 11271 20 132953 17272 2.5 16 7 2 6 29% 12366 76237 12941 35%
c i 31.19 27 161 0 34 11271 20 133176 17456 2.5 16 7 2 6 29% 12369 76236 12940 35%
c i 31.22 27 160 0 34 11307 20 133823 18002 2.5 16 7 2 6 28% 12388 76234 12939 35%
c i 31.22 27 159 0 34 11311 20 133961 18100 2.5 16 7 2 6 28% 12396 76234 12938 35%
c i 31.22 27 159 0 34 11311 20 133971 18103 2.5 16 7 2 6 28% 12398 76234 12936 35%
c i 31.22 27 159 0 34 11311 20 133976 18102 2.5 16 7 2 6 28% 12400 76234 12935 35%
c i 31.22 27 159 0 34 11311 20 133984 18103 2.5 16 7 2 6 28% 12402 76234 12933 35%
c
c  seconds   switched      rate          size/glue tier1    binary          remaining
c         MB   reductions    conflicts         size  tier2      irredundant
c           level   restarts        redundant    glue   trail          variables
c
c } 31.22 27 159 0 34 11311 20 133987 18103 2.5 16 7 2 6 28% 12403 76234 12925 35%
c 0 31.22 27 159 0 34 11311 20 133987 18103 2.5 16 7 2 6 28% 12403 76234 12925 35%
c
c ---- [ result ] ------------------------------------------------------------
c
s UNSATISFIABLE
c
c ---- [ profiling ] ---------------------------------------------------------
c
c          20.26   64.89 %  search
c          20.26   64.89 %  focused
c          10.32   33.04 %  simplify
c           9.88   31.65 %  probe
c           4.07   13.04 %  sweep
c           3.49   11.19 %  vivify
c           0.91    2.91 %  factor
c           0.78    2.49 %  eliminate
c           0.59    1.89 %  substitute
c           0.57    1.83 %  congruence
c           0.55    1.76 %  preprocess
c           0.21    0.67 %  reduce
c           0.20    0.63 %  fastel
c           0.17    0.55 %  subsume
c           0.15    0.49 %  transitive
c           0.09    0.30 %  backbone
c           0.05    0.17 %  lucky
c           0.04    0.13 %  parse
c =============================================
c          31.22  100.00 %  total
c
c ---- [ statistics ] --------------------------------------------------------
c
c chronological:                         4908                4 %  conflicts
c conflicts:                           133987             4291.54 per second
c congruent:                             3599               10 %  variables
c decisions:                          2729065               20.37 per conflict
c eliminated:                           16924               46 %  variables
c factored:                              3336                9 %  variables
c fast_eliminated:                       9346               55 %  eliminated
c fast_strengthened:                      512               13 %  per strengthened
c fast_subsumed:                          188                1 %  per subsumed
c iterations:                              30                0 %  variables
c propagations:                     132422728          4241441    per second
c reductions:                              34             3941    interval
c reordered:                                5            26797    interval
c restarts:                             11311               12    interval
c strengthened:                          3979                0 %  checks
c substituted:                          10074               27 %  variables
c subsumed:                             12933                0 %  checks
c switched:                                 0                0    interval
c vivified:                             84937               16 %  checks
c
c ---- [ glue usage ] --------------------------------------------------------
c
c focused glue 2 used 65361 clauses 26.56% accumulated 67.70% tier1
c focused glue 3 used 31155 clauses 12.66% accumulated 80.36%
c focused glue 4 used 14234 clauses  5.78% accumulated 86.14%
c focused glue 5 used  8596 clauses  3.49% accumulated 89.63%
c focused glue 6 used  5773 clauses  2.35% accumulated 91.98% tier2
c
c ---- [ resources ] ---------------------------------------------------------
c
c maximum-resident-set-size:         28844032 bytes         28 MB
c process-time:                            31s              31.22 seconds
c
c ---- [ shutting down ] -----------------------------------------------------
c
c exit 20
